0 46 
1 46 
2 46 
3 44 
4 43 
5 44 
6 41 
7 42 
8 43 
9 42 
10 41 
11 39 
12 39 
13 39 
14 38 
15 39 
16 36 
17 34 
18 32 
19 30 
20 32 
21 29 
22 29 
23 30 
24 28 
25 23 
26 22 
27 20 
28 18 
29 19 
30 17 
31 17 
32 15 
33 12 
34 9 
35 9 
36 8 
37 7 
38 6 
39 5 
40 2 
41 3 
42 3 
43 4 
44 2 
45 1 
46 0 
47 0 

